num_couriers = 2;
num_items = 6;
load_size = [15, 10];
item_size = [3, 2, 6, 5, 4, 4];
distances = [| 0, 3, 4, 5, 6, 6, 2
            | 3, 0, 1, 4, 5, 7, 3
            | 4, 1, 0, 5, 6, 6, 4
            | 4, 4, 5, 0, 3, 3, 2
            | 6, 7, 8, 3, 0, 2, 4
            | 6, 7, 8, 3, 2, 0, 4
            | 2, 3, 4, 3, 4, 4, 0|];